; Automatically generated by map2smt

(set-logic HORN)

(declare-datatypes ((listOfInt 0) )
(((cons-listOfInt (head-listOfInt Int) (tail-listOfInt listOfInt)) (nil-listOfInt))))



(declare-fun adt_new1 (listOfInt Bool) Bool)
(declare-fun leq (Int Int Bool) Bool)
(declare-fun map_not (Bool Bool) Bool)
(declare-fun last (listOfInt Int) Bool)
(declare-fun ff () Bool)

(assert
  (forall ( (A Int) (B listOfInt) (C Bool) )
    (=>
      (= C false)
      (adt_new1 (cons-listOfInt A B) C)
    )
  )
)
(assert
  (forall ( (A Bool) )
    (=>
      (= A true)
      (adt_new1 nil-listOfInt A)
    )
  )
)
(assert
  (forall ( (A Bool) (B Bool) )
    (=>
      (and
        (= B false)
        (= A true)
      )
      (map_not A B)
    )
  )
)
(assert
  (forall ( (A Bool) (B Bool) )
    (=>
      (and
        (= B true)
        (= A false)
      )
      (map_not A B)
    )
  )
)
(assert
  (forall ( (A Int) )
    (last (cons-listOfInt A nil-listOfInt) A)
  )
)
(assert
  (forall ( (A Int) (B Int) (C listOfInt) (D Int) )
    (=>
      (last (cons-listOfInt B C) D)
      (last (cons-listOfInt A (cons-listOfInt B C)) D)
    )
  )
)
(assert
  (forall ( (A Int) (B Int) (C Int) (D Int) (E listOfInt) )
    (=>
      (and
        (>= (- A B) 1)
        (last (cons-listOfInt C (cons-listOfInt D E)) B)
        (last (cons-listOfInt D E) A)
      )
      ff
    )
  )
)
(assert
  (forall ( (A Int) (B Int) (C Int) (D Int) (E listOfInt) )
    (=>
      (and
        (<= (- A B) (- 1))
        (last (cons-listOfInt C (cons-listOfInt D E)) B)
        (last (cons-listOfInt D E) A)
      )
      ff
    )
  )
)

(assert (not ff))
(check-sat)
